FourierSAT_Github_AIJ/benchmarks/MAXSAT_benchmarks/3/bipartite/maxcut-140-630-0.7/maxcut-140-630-0.7-5.cnf
c strEdges: 189  randomEdges: 441 
c degrees:  2  3 
c girth: 10 max: 8.032766  
c Hgirth mixed MAXCUT instance
c generated from an undirected graph
c to solve unweighted MaxCut
p cnf 140 1260
43 89 0
-43 -89 0
43 88 0
-43 -88 0
37 101 0
-37 -101 0
37 74 0
-37 -74 0
37 124 0
-37 -124 0
42 46 0
-42 -46 0
42 73 0
-42 -73 0
42 74 0
-42 -74 0
118 70 0
-118 -70 0
118 138 0
-118 -138 0
118 59 0
-118 -59 0
98 18 0
-98 -18 0
98 62 0
-98 -62 0
98 20 0
-98 -20 0
40 15 0
-40 -15 0
40 105 0
-40 -105 0
95 11 0
-95 -11 0
95 80 0
-95 -80 0
28 59 0
-28 -59 0
28 5 0
-28 -5 0
28 2 0
-28 -2 0
137 6 0
-137 -6 0
137 133 0
-137 -133 0
137 138 0
-137 -138 0
75 49 0
-75 -49 0
75 33 0
-75 -33 0
75 131 0
-75 -131 0
3 53 0
-3 -53 0
3 16 0
-3 -16 0
100 13 0
-100 -13 0
100 92 0
-100 -92 0
100 2 0
-100 -2 0
64 128 0
-64 -128 0
64 31 0
-64 -31 0
64 6 0
-64 -6 0
107 32 0
-107 -32 0
107 135 0
-107 -135 0
107 9 0
-107 -9 0
58 38 0
-58 -38 0
58 80 0
-58 -80 0
58 9 0
-58 -9 0
4 93 0
-4 -93 0
4 1 0
-4 -1 0
4 119 0
-4 -119 0
78 105 0
-78 -105 0
78 89 0
-78 -89 0
78 87 0
-78 -87 0
66 61 0
-66 -61 0
66 53 0
-66 -53 0
86 90 0
-86 -90 0
86 104 0
-86 -104 0
86 94 0
-86 -94 0
81 39 0
-81 -39 0
81 50 0
-81 -50 0
24 135 0
-24 -135 0
24 62 0
-24 -62 0
24 68 0
-24 -68 0
76 119 0
-76 -119 0
76 32 0
-76 -32 0
76 67 0
-76 -67 0
36 33 0
-36 -33 0
36 89 0
-36 -89 0
79 27 0
-79 -27 0
79 5 0
-79 -5 0
79 90 0
-79 -90 0
22 99 0
-22 -99 0
22 46 0
-22 -46 0
22 10 0
-22 -10 0
14 80 0
-14 -80 0
14 46 0
-14 -46 0
14 131 0
-14 -131 0
120 68 0
-120 -68 0
120 128 0
-120 -128 0
120 85 0
-120 -85 0
30 1 0
-30 -1 0
30 97 0
-30 -97 0
12 63 0
-12 -63 0
12 123 0
-12 -123 0
12 50 0
-12 -50 0
82 69 0
-82 -69 0
82 122 0
-82 -122 0
82 39 0
-82 -39 0
126 111 0
-126 -111 0
126 17 0
-126 -17 0
126 15 0
-126 -15 0
65 83 0
-65 -83 0
65 61 0
-65 -61 0
65 49 0
-65 -49 0
48 133 0
-48 -133 0
48 55 0
-48 -55 0
77 17 0
-77 -17 0
77 41 0
-77 -41 0
77 93 0
-77 -93 0
130 47 0
-130 -47 0
130 83 0
-130 -83 0
130 71 0
-130 -71 0
110 87 0
-110 -87 0
110 99 0
-110 -99 0
110 18 0
-110 -18 0
139 10 0
-139 -10 0
139 88 0
-139 -88 0
57 20 0
-57 -20 0
57 49 0
-57 -49 0
115 85 0
-115 -85 0
115 111 0
-115 -111 0
103 71 0
-103 -71 0
103 69 0
-103 -69 0
103 91 0
-103 -91 0
56 19 0
-56 -19 0
56 87 0
-56 -87 0
56 102 0
-56 -102 0
121 9 0
-121 -9 0
121 55 0
-121 -55 0
60 2 0
-60 -2 0
60 47 0
-60 -47 0
60 10 0
-60 -10 0
44 125 0
-44 -125 0
44 96 0
-44 -96 0
23 50 0
-23 -50 0
23 90 0
-23 -90 0
23 33 0
-23 -33 0
132 16 0
-132 -16 0
132 31 0
-132 -31 0
140 74 0
-140 -74 0
140 84 0
-140 -84 0
140 94 0
-140 -94 0
129 91 0
-129 -91 0
129 111 0
-129 -111 0
129 13 0
-129 -13 0
72 73 0
-72 -73 0
72 92 0
-72 -92 0
116 34 0
-116 -34 0
116 124 0
-116 -124 0
116 59 0
-116 -59 0
117 84 0
-117 -84 0
117 21 0
-117 -21 0
117 119 0
-117 -119 0
136 96 0
-136 -96 0
136 73 0
-136 -73 0
136 1 0
-136 -1 0
25 123 0
-25 -123 0
25 13 0
-25 -13 0
25 32 0
-25 -32 0
113 104 0
-113 -104 0
113 19 0
-113 -19 0
113 83 0
-113 -83 0
51 131 0
-51 -131 0
51 85 0
-51 -85 0
51 70 0
-51 -70 0
109 5 0
-109 -5 0
109 38 0
-109 -38 0
109 15 0
-109 -15 0
8 102 0
-8 -102 0
8 53 0
-8 -53 0
8 123 0
-8 -123 0
52 31 0
-52 -31 0
52 101 0
-52 -101 0
52 105 0
-52 -105 0
106 122 0
-106 -122 0
106 16 0
-106 -16 0
106 97 0
-106 -97 0
54 94 0
-54 -94 0
54 125 0
-54 -125 0
54 6 0
-54 -6 0
112 124 0
-112 -124 0
112 63 0
-112 -63 0
112 11 0
-112 -11 0
45 88 0
-45 -88 0
45 96 0
-45 -96 0
114 21 0
-114 -21 0
114 99 0
-114 -99 0
114 91 0
-114 -91 0
35 41 0
-35 -41 0
35 104 0
-35 -104 0
29 97 0
-29 -97 0
29 27 0
-29 -27 0
29 18 0
-29 -18 0
134 55 0
-134 -55 0
134 39 0
-134 -39 0
134 93 0
-134 -93 0
7 92 0
-7 -92 0
7 68 0
-7 -68 0
108 67 0
-108 -67 0
108 61 0
-108 -61 0
108 34 0
-108 -34 0
26 138 0
-26 -138 0
26 102 0
-26 -102 0
127 62 0
-127 -62 0
127 125 0
-127 -125 0
56 114 0
-56 -114 0
18 11 0
-18 -11 0
89 94 0
-89 -94 0
30 69 0
-30 -69 0
35 94 0
-35 -94 0
75 129 0
-75 -129 0
39 69 0
-39 -69 0
49 111 0
-49 -111 0
76 79 0
-76 -79 0
31 92 0
-31 -92 0
38 20 0
-38 -20 0
10 71 0
-10 -71 0
116 87 0
-116 -87 0
77 135 0
-77 -135 0
88 55 0
-88 -55 0
46 111 0
-46 -111 0
58 63 0
-58 -63 0
140 38 0
-140 -38 0
110 121 0
-110 -121 0
103 56 0
-103 -56 0
43 12 0
-43 -12 0
22 73 0
-22 -73 0
90 55 0
-90 -55 0
110 85 0
-110 -85 0
36 131 0
-36 -131 0
90 2 0
-90 -2 0
114 5 0
-114 -5 0
75 100 0
-75 -100 0
44 128 0
-44 -128 0
121 25 0
-121 -25 0
95 45 0
-95 -45 0
71 122 0
-71 -122 0
98 24 0
-98 -24 0
9 124 0
-9 -124 0
35 62 0
-35 -62 0
25 127 0
-25 -127 0
110 44 0
-110 -44 0
40 121 0
-40 -121 0
42 27 0
-42 -27 0
33 99 0
-33 -99 0
14 89 0
-14 -89 0
8 89 0
-8 -89 0
75 122 0
-75 -122 0
117 122 0
-117 -122 0
4 8 0
-4 -8 0
76 103 0
-76 -103 0
121 117 0
-121 -117 0
114 15 0
-114 -15 0
40 50 0
-40 -50 0
79 52 0
-79 -52 0
98 90 0
-98 -90 0
28 15 0
-28 -15 0
130 56 0
-130 -56 0
98 92 0
-98 -92 0
70 39 0
-70 -39 0
38 111 0
-38 -111 0
23 19 0
-23 -19 0
128 138 0
-128 -138 0
29 50 0
-29 -50 0
75 32 0
-75 -32 0
137 56 0
-137 -56 0
79 71 0
-79 -71 0
84 5 0
-84 -5 0
98 33 0
-98 -33 0
14 91 0
-14 -91 0
120 132 0
-120 -132 0
70 53 0
-70 -53 0
13 32 0
-13 -32 0
109 35 0
-109 -35 0
139 29 0
-139 -29 0
46 9 0
-46 -9 0
36 126 0
-36 -126 0
121 11 0
-121 -11 0
51 134 0
-51 -134 0
11 128 0
-11 -128 0
30 132 0
-30 -132 0
37 98 0
-37 -98 0
12 91 0
-12 -91 0
51 74 0
-51 -74 0
75 22 0
-75 -22 0
110 140 0
-110 -140 0
107 90 0
-107 -90 0
121 136 0
-121 -136 0
113 112 0
-113 -112 0
77 29 0
-77 -29 0
115 102 0
-115 -102 0
82 112 0
-82 -112 0
139 117 0
-139 -117 0
48 122 0
-48 -122 0
78 35 0
-78 -35 0
8 87 0
-8 -87 0
83 74 0
-83 -74 0
82 10 0
-82 -10 0
45 102 0
-45 -102 0
92 67 0
-92 -67 0
73 122 0
-73 -122 0
75 45 0
-75 -45 0
53 119 0
-53 -119 0
38 2 0
-38 -2 0
4 50 0
-4 -50 0
23 134 0
-23 -134 0
3 117 0
-3 -117 0
116 47 0
-116 -47 0
72 124 0
-72 -124 0
80 50 0
-80 -50 0
109 31 0
-109 -31 0
108 124 0
-108 -124 0
116 26 0
-116 -26 0
59 85 0
-59 -85 0
112 90 0
-112 -90 0
107 127 0
-107 -127 0
65 132 0
-65 -132 0
4 86 0
-4 -86 0
89 32 0
-89 -32 0
69 9 0
-69 -9 0
98 32 0
-98 -32 0
52 102 0
-52 -102 0
15 53 0
-15 -53 0
54 38 0
-54 -38 0
14 82 0
-14 -82 0
100 132 0
-100 -132 0
115 10 0
-115 -10 0
101 91 0
-101 -91 0
80 125 0
-80 -125 0
22 84 0
-22 -84 0
86 61 0
-86 -61 0
117 17 0
-117 -17 0
43 81 0
-43 -81 0
57 127 0
-57 -127 0
116 11 0
-116 -11 0
33 69 0
-33 -69 0
44 67 0
-44 -67 0
83 104 0
-83 -104 0
118 38 0
-118 -38 0
116 108 0
-116 -108 0
72 46 0
-72 -46 0
12 18 0
-12 -18 0
59 49 0
-59 -49 0
46 124 0
-46 -124 0
110 106 0
-110 -106 0
86 2 0
-86 -2 0
132 26 0
-132 -26 0
126 27 0
-126 -27 0
36 134 0
-36 -134 0
54 5 0
-54 -5 0
100 96 0
-100 -96 0
115 2 0
-115 -2 0
103 17 0
-103 -17 0
42 9 0
-42 -9 0
59 133 0
-59 -133 0
37 87 0
-37 -87 0
58 25 0
-58 -25 0
109 88 0
-109 -88 0
126 116 0
-126 -116 0
27 83 0
-27 -83 0
40 30 0
-40 -30 0
119 20 0
-119 -20 0
121 84 0
-121 -84 0
53 20 0
-53 -20 0
109 123 0
-109 -123 0
105 74 0
-105 -74 0
127 27 0
-127 -27 0
8 38 0
-8 -38 0
44 70 0
-44 -70 0
16 131 0
-16 -131 0
26 33 0
-26 -33 0
78 97 0
-78 -97 0
78 139 0
-78 -139 0
39 63 0
-39 -63 0
37 110 0
-37 -110 0
86 62 0
-86 -62 0
108 128 0
-108 -128 0
36 97 0
-36 -97 0
115 15 0
-115 -15 0
42 66 0
-42 -66 0
68 133 0
-68 -133 0
37 63 0
-37 -63 0
14 35 0
-14 -35 0
16 104 0
-16 -104 0
87 21 0
-87 -21 0
134 62 0
-134 -62 0
8 21 0
-8 -21 0
78 71 0
-78 -71 0
43 5 0
-43 -5 0
74 88 0
-74 -88 0
23 13 0
-23 -13 0
100 135 0
-100 -135 0
51 16 0
-51 -16 0
4 80 0
-4 -80 0
5 88 0
-5 -88 0
7 108 0
-7 -108 0
128 20 0
-128 -20 0
126 56 0
-126 -56 0
70 102 0
-70 -102 0
118 4 0
-118 -4 0
125 62 0
-125 -62 0
81 88 0
-81 -88 0
121 21 0
-121 -21 0
45 135 0
-45 -135 0
93 80 0
-93 -80 0
100 60 0
-100 -60 0
95 25 0
-95 -25 0
66 126 0
-66 -126 0
98 66 0
-98 -66 0
43 60 0
-43 -60 0
75 119 0
-75 -119 0
40 72 0
-40 -72 0
49 90 0
-49 -90 0
27 102 0
-27 -102 0
118 32 0
-118 -32 0
22 44 0
-22 -44 0
72 135 0
-72 -135 0
54 104 0
-54 -104 0
36 111 0
-36 -111 0
48 93 0
-48 -93 0
72 10 0
-72 -10 0
129 51 0
-129 -51 0
30 130 0
-30 -130 0
42 96 0
-42 -96 0
87 131 0
-87 -131 0
75 124 0
-75 -124 0
42 82 0
-42 -82 0
47 138 0
-47 -138 0
45 7 0
-45 -7 0
3 29 0
-3 -29 0
48 117 0
-48 -117 0
115 132 0
-115 -132 0
58 10 0
-58 -10 0
68 111 0
-68 -111 0
23 105 0
-23 -105 0
25 34 0
-25 -34 0
52 16 0
-52 -16 0
86 20 0
-86 -20 0
114 135 0
-114 -135 0
58 110 0
-58 -110 0
12 39 0
-12 -39 0
117 131 0
-117 -131 0
71 94 0
-71 -94 0
61 92 0
-61 -92 0
58 33 0
-58 -33 0
68 69 0
-68 -69 0
40 33 0
-40 -33 0
77 9 0
-77 -9 0
103 93 0
-103 -93 0
135 96 0
-135 -96 0
75 16 0
-75 -16 0
124 67 0
-124 -67 0
52 70 0
-52 -70 0
104 31 0
-104 -31 0
25 15 0
-25 -15 0
60 129 0
-60 -129 0
43 96 0
-43 -96 0
20 124 0
-20 -124 0
46 123 0
-46 -123 0
61 138 0
-61 -138 0
58 87 0
-58 -87 0
26 13 0
-26 -13 0
22 67 0
-22 -67 0
37 36 0
-37 -36 0
23 85 0
-23 -85 0
135 91 0
-135 -91 0
107 129 0
-107 -129 0
110 129 0
-110 -129 0
56 99 0
-56 -99 0
17 73 0
-17 -73 0
107 23 0
-107 -23 0
76 112 0
-76 -112 0
113 39 0
-113 -39 0
23 34 0
-23 -34 0
53 2 0
-53 -2 0
95 19 0
-95 -19 0
56 59 0
-56 -59 0
46 97 0
-46 -97 0
106 119 0
-106 -119 0
14 55 0
-14 -55 0
76 54 0
-76 -54 0
95 114 0
-95 -114 0
40 18 0
-40 -18 0
107 106 0
-107 -106 0
17 34 0
-17 -34 0
138 62 0
-138 -62 0
106 5 0
-106 -5 0
3 62 0
-3 -62 0
89 135 0
-89 -135 0
81 113 0
-81 -113 0
101 69 0
-101 -69 0
77 87 0
-77 -87 0
110 41 0
-110 -41 0
6 68 0
-6 -68 0
83 91 0
-83 -91 0
6 32 0
-6 -32 0
95 1 0
-95 -1 0
30 20 0
-30 -20 0
133 19 0
-133 -19 0
82 62 0
-82 -62 0
8 99 0
-8 -99 0
95 15 0
-95 -15 0
58 8 0
-58 -8 0
30 74 0
-30 -74 0
28 104 0
-28 -104 0
66 97 0
-66 -97 0
128 97 0
-128 -97 0
14 68 0
-14 -68 0
75 87 0
-75 -87 0
50 122 0
-50 -122 0
120 115 0
-120 -115 0
15 105 0
-15 -105 0
111 124 0
-111 -124 0
46 61 0
-46 -61 0
70 123 0
-70 -123 0
39 99 0
-39 -99 0
95 89 0
-95 -89 0
23 32 0
-23 -32 0
45 47 0
-45 -47 0
136 92 0
-136 -92 0
77 108 0
-77 -108 0
38 47 0
-38 -47 0
107 53 0
-107 -53 0
42 8 0
-42 -8 0
24 130 0
-24 -130 0
111 92 0
-111 -92 0
65 96 0
-65 -96 0
45 2 0
-45 -2 0
40 47 0
-40 -47 0
95 125 0
-95 -125 0
113 38 0
-113 -38 0
108 55 0
-108 -55 0
46 131 0
-46 -131 0
87 9 0
-87 -9 0
65 70 0
-65 -70 0
82 5 0
-82 -5 0
9 122 0
-9 -122 0
33 2 0
-33 -2 0
99 73 0
-99 -73 0
101 5 0
-101 -5 0
116 105 0
-116 -105 0
44 31 0
-44 -31 0
28 120 0
-28 -120 0
60 108 0
-60 -108 0
6 34 0
-6 -34 0
130 93 0
-130 -93 0
129 18 0
-129 -18 0
137 101 0
-137 -101 0
7 62 0
-7 -62 0
42 3 0
-42 -3 0
109 33 0
-109 -33 0
33 94 0
-33 -94 0
8 9 0
-8 -9 0
80 16 0
-80 -16 0
86 74 0
-86 -74 0
40 38 0
-40 -38 0
65 18 0
-65 -18 0
14 115 0
-14 -115 0
36 84 0
-36 -84 0
112 101 0
-112 -101 0
93 84 0
-93 -84 0
24 23 0
-24 -23 0
115 121 0
-115 -121 0
130 102 0
-130 -102 0
112 131 0
-112 -131 0
108 87 0
-108 -87 0
107 114 0
-107 -114 0
4 134 0
-4 -134 0
28 58 0
-28 -58 0
17 97 0
-17 -97 0
42 14 0
-42 -14 0
58 54 0
-58 -54 0
24 119 0
-24 -119 0
42 62 0
-42 -62 0
58 99 0
-58 -99 0
60 140 0
-60 -140 0
89 105 0
-89 -105 0
110 97 0
-110 -97 0
118 22 0
-118 -22 0
101 21 0
-101 -21 0
66 46 0
-66 -46 0
17 131 0
-17 -131 0
119 1 0
-119 -1 0
132 99 0
-132 -99 0
79 126 0
-79 -126 0
139 57 0
-139 -57 0
105 20 0
-105 -20 0
58 81 0
-58 -81 0
70 17 0
-70 -17 0
28 126 0
-28 -126 0
14 70 0
-14 -70 0
73 34 0
-73 -34 0
136 63 0
-136 -63 0
136 125 0
-136 -125 0
3 120 0
-3 -120 0
56 18 0
-56 -18 0
121 27 0
-121 -27 0
14 122 0
-14 -122 0
50 73 0
-50 -73 0
77 80 0
-77 -80 0
51 111 0
-51 -111 0
87 67 0
-87 -67 0
100 66 0
-100 -66 0
75 93 0
-75 -93 0
70 124 0
-70 -124 0
113 69 0
-113 -69 0
112 55 0
-112 -55 0
64 79 0
-64 -79 0
73 131 0
-73 -131 0
100 82 0
-100 -82 0
72 133 0
-72 -133 0
51 34 0
-51 -34 0
113 10 0
-113 -10 0
127 11 0
-127 -11 0
52 99 0
-52 -99 0
121 80 0
-121 -80 0
82 49 0
-82 -49 0
132 117 0
-132 -117 0
48 70 0
-48 -70 0
25 80 0
-25 -80 0
16 62 0
-16 -62 0
137 3 0
-137 -3 0
86 15 0
-86 -15 0
35 67 0
-35 -67 0
13 33 0
-13 -33 0
66 25 0
-66 -25 0
48 67 0
-48 -67 0
52 46 0
-52 -46 0
110 50 0
-110 -50 0
64 97 0
-64 -97 0
36 127 0
-36 -127 0
118 64 0
-118 -64 0
57 71 0
-57 -71 0
43 107 0
-43 -107 0
15 55 0
-15 -55 0
118 109 0
-118 -109 0
7 88 0
-7 -88 0
109 7 0
-109 -7 0
65 128 0
-65 -128 0
108 71 0
-108 -71 0
23 16 0
-23 -16 0
23 46 0
-23 -46 0
95 73 0
-95 -73 0
136 31 0
-136 -31 0
139 123 0
-139 -123 0
7 26 0
-7 -26 0
